HyperCubes/ilpSamples/samples/prueba3.lp
Minimize
x0 + x1 + x2 + x3 + x4 + x5 + x6 + x7
Subject To
x0 + x1 + x2 + x3 + x4 + x5 + x6 + x7 >= 1 
x0 + x1 + x2 + x3 + x4 + x5 + x6 + x7 >= 1 
x0 + x3 + x4 + x7 >= 1 
x0 + x1 + x2 + x3 + x4 + x5 + x6 + x7 >= 1 
x0 + x2 + x5 + x7 >= 1 
x0 + x1 + x6 + x7 >= 1 
x0 + x1 + x2 + x3 + x4 + x5 + x6 + x7 >= 1 
x1 + x2 + x5 + x6 >= 1 
x0 + x1 + x2 + x3 + x4 + x5 + x6 + x7 >= 1 
x1 + x3 + x4 + x6 >= 1 
x0 + x1 + x2 + x3 + x4 + x5 + x6 + x7 >= 1 
x0 + x1 + x2 + x3 + x4 + x5 + x6 + x7 >= 1 
x0 + x1 + x6 + x7 >= 1 
x0 + x1 + x2 + x3 + x4 + x5 + x6 + x7 >= 1 
x2 + x3 + x4 + x5 >= 1 
x0 + x1 + x2 + x3 + x4 + x5 + x6 + x7 >= 1 
x0 + x1 + x2 + x3 + x4 + x5 + x6 + x7 >= 1 
x0 + x2 + x5 + x7 >= 1 
x0 + x1 + x2 + x3 + x4 + x5 + x6 + x7 >= 1 
x2 + x3 + x4 + x5 >= 1 
x1 + x3 + x4 + x6 >= 1 
x0 + x1 + x2 + x3 + x4 + x5 + x6 + x7 >= 1 
x0 + x1 + x2 + x3 + x4 + x5 + x6 + x7 >= 1 
x0 + x1 + x2 + x3 + x4 + x5 + x6 + x7 >= 1 
x0 + x3 + x4 + x7 >= 1 
x1 + x2 + x5 + x6 >= 1 
x0 + x1 + x2 + x3 + x4 + x5 + x6 + x7 >= 1 
x0 + x1 + x2 + x3 + x4 + x5 + x6 + x7 >= 1 
Binary
x0 x1 x2 x3 x4 x5 x6 x7
End
