HyperCubes/satSamples/samples/prueba3.wcnf
h 1 2 3 4 5 6 7 8 0
h 1 2 3 4 5 6 7 8 0
h 1 4 5 8 0
h 1 2 3 4 5 6 7 8 0
h 1 3 6 8 0
h 1 2 7 8 0
h 1 2 3 4 5 6 7 8 0
h 2 3 6 7 0
h 1 2 3 4 5 6 7 8 0
h 2 4 5 7 0
h 1 2 3 4 5 6 7 8 0
h 1 2 3 4 5 6 7 8 0
h 1 2 7 8 0
h 1 2 3 4 5 6 7 8 0
h 3 4 5 6 0
h 1 2 3 4 5 6 7 8 0
h 1 2 3 4 5 6 7 8 0
h 1 3 6 8 0
h 1 2 3 4 5 6 7 8 0
h 3 4 5 6 0
h 2 4 5 7 0
h 1 2 3 4 5 6 7 8 0
h 1 2 3 4 5 6 7 8 0
h 1 2 3 4 5 6 7 8 0
h 1 4 5 8 0
h 2 3 6 7 0
h 1 2 3 4 5 6 7 8 0
h 1 2 3 4 5 6 7 8 0
1 -1 0
1 -2 0
1 -3 0
1 -4 0
1 -5 0
1 -6 0
1 -7 0
1 -8 0
